/* Objective function */
min: 12 x1 + 10 y1 + 2 s1 + 14 x2 + 12 y2 + 2 s2 + 16 x3 + 14 y3 + 2 s3 + 18 x4 + 16 y4 + 2 s4;

/* Constraints */
x1 + y1 - s1 = 150;
x2 + y2 + s1 - s2 = 200;
x3 + y3 + s2 - s3 = 250;
x4 + y4 + s3 - s4 = 150;

0 <= x1 <= 200;
0 <= x2 <= 200;
0 <= x3 <= 200;
0 <= x4 <= 200;

y1 >= 0;
y2 >= 0;
y3 >= 0;
y4 >= 0;